Route #1: 24 55 33 60 54 21
Route #2: 61 46 23 7
Route #3: 37 35 27 8 16
Route #4: 25 15 53 14 56 40
Route #5: 49 45 39 1 41 2 9 12 6 29
Route #6: 18 5 3 42 19 10 59
Route #7: 48 36 43 52
Route #8: 26 13 4 38 30
Route #9: 17 62 57 32 28 20
Route #10: 31 51 58 22 34 11 47 44 50
Cost 1319
Time 0.129537
Tempo = 0.14613619999727234